p cnf 38 122
-3 -1 0
-3 -2 0
1 2 3 0
-4 -2 -5 0
4 2 -5 0
-4 2 5 0
4 -2 5 0
-7 -5 0
-7 6 0
5 -6 7 0
8 3 0
8 7 0
-3 -7 -8 0
-9 6 -10 0
9 -6 -10 0
-9 -6 10 0
9 6 10 0
-13 -11 0
-13 12 0
11 -12 13 0
-10 -13 -14 0
10 13 -14 0
-10 13 14 0
10 -13 14 0
15 -13 0
15 -1 0
13 1 -15 0
14 15 -16 0
-14 -15 -16 0
14 -15 16 0
-14 15 16 0
1 10 -17 0
-1 -10 -17 0
1 -10 17 0
-1 10 17 0
18 16 0
18 -17 0
-16 17 -18 0
18 -11 -19 0
-18 11 -19 0
18 11 19 0
-18 -11 19 0
-8 -19 -20 0
8 19 -20 0
-8 19 20 0
8 -19 20 0
22 21 0
22 2 0
-21 -2 -22 0
-23 -1 -24 0
23 1 -24 0
-23 1 24 0
23 -1 24 0
26 25 0
26 -18 0
-25 18 -26 0
27 -16 0
27 -4 0
16 4 -27 0
-21 28 0
21 28 0
-29 -27 0
-29 -28 0
27 28 29 0
-30 26 0
-30 -29 0
-26 29 30 0
31 -5 0
31 -13 0
5 13 -31 0
-32 -30 0
-32 31 0
30 -31 32 0
33 -24 0
33 -32 0
24 32 -33 0
-22 33 -34 0
22 -33 -34 0
-22 -33 34 0
22 33 34 0
20 -34 -35 0
-20 34 -35 0
20 34 35 0
-20 -34 35 0
12 13 -36 0
-12 -13 -36 0
12 -13 36 0
-12 13 36 0
-36 -37 0
36 -37 0
38 35 0
38 -37 0
-35 37 -38 0
1 38 35 25 0
29 23 30 -31 33 0
13 -25 6 -5 -31 -32 0
30 19 -27 -6 9 20 0
3 9 2 0
9 -35 -24 -26 0
-3 0
29 13 -18 0
22 -10 24 0
-20 -14 0
-4 -30 17 -9 5 0
30 32 14 0
-17 -35 37 12 34 0
6 27 -3 0
24 -16 -10 0
-21 -28 16 -30 0
-20 29 30 2 -15 0
2 28 -30 -11 0
5 38 0
-14 36 31 30 18 0
33 22 27 37 -36 21 0
4 16 0
-15 -16 28 27 26 -11 0
28 -20 -7 0
15 27 1 -31 0
-23 12 -24 -14 0
25 26 -10 31 22 0
20 6 0
38 0
